##############################################################################
#                                                                            #
# Ga-Mn            # Mn2Ga5rt                                      #  261499 #
#                                                                            #
##############################################################################
#                                                                            #
#                           Pearson's Crystal Data                           #
#      Crystal Structure Database for Inorganic Compounds (on CD-ROM)        #
#                              Release 2010/11                               #
#                  Editors: Pierre Villars and Karin Cenzual                 #
#                                                                            #
#   Copyright (c) ASM International & Material Phases Data System (MPDS),    #
# Switzerland & National Institute for Materials Science (NIMS), Japan, 2010 #
#  (Data generated pre-2002: Copyright (c) ASM International & MPDS & NIMS;  #
#             post-2001: Copyright (c) ASM International & MPDS)             #
#                   All rights reserved. Version 2010.06                     #
#                                                                            #
#   This copy of Pearson's Crystal Data is licensed to:                      #
#   Ruhr-Universitat Bochum, ICAMS Bibliothek                                #
#                                                                            #
##############################################################################

data_261499
_audit_creation_date                     2010-12-15
_audit_creation_method
;
Pearson's Crystal Data browser
;
#_database_code_PCD                      261499

# Entry summary

_chemical_formula_structural             Mn2Ga5
_chemical_formula_sum                    Ga5Mn2
_chemical_name_mineral                   ?
_chemical_compound_source                ?
_chemical_name_structure_type            Hg5Mn2,tP14,127
_chemical_formula_weight                 458.5
_chemical_melting_point                  ?

# Bibliographic data

_publ_section_title
;
Zum Aufbau einiger zu T5-Ga homologer und quasihomologer Systeme. II. Die Systeme Chrom-Gallium, Mangan-Gallium und Eisen-Gallium sowie einige Bemerkungen zum Aufbau der Systeme Vanadium-Antimon und Vanadium-Arsen
;
_journal_coden_ASTM                      ZEMTAE
_journal_year                            1965
_journal_volume                          56
_journal_page_first                      523
_journal_page_last                       530
_journal_language                        German
loop_
 _publ_author_name
 _publ_author_address
'Meissner H.G.'
;
Max Planck Society
Max Planck Institut für Metallforschung
Stuttgart
Germany
;
'Schubert K.'
;
Max Planck Society
Max Planck Institut für Metallforschung
Stuttgart
Germany
;

# Standardized crystallographic data

_cell_length_a                           8.8
_cell_length_b                           8.8
_cell_length_c                           2.69
_cell_angle_alpha                        90
_cell_angle_beta                         90
_cell_angle_gamma                        90
_cell_volume                             208.31
_cell_formula_units_Z                    2
_symmetry_Int_Tables_number              127
_symmetry_space_group_name_H-M           P4/mbm
loop_
 _symmetry_equiv_pos_site_id
 _symmetry_equiv_pos_as_xyz
 1 'x, y, z'
 2 '0.5-x, 0.5+y, -z'
 3 '0.5-x, 0.5+y, z'
 4 '-x, -y, -z'
 5 '-x, -y, z'
 6 '0.5-y, 0.5-x, -z'
 7 '0.5-y, 0.5-x, z'
 8 '-y, x, -z'
 9 '-y, x, z'
 10 '0.5+x, 0.5-y, -z'
 11 '0.5+x, 0.5-y, z'
 12 'x, y, -z'
 13 '0.5+y, 0.5+x, -z'
 14 '0.5+y, 0.5+x, z'
 15 'y, -x, -z'
 16 'y, -x, z'

# Atomic positions taken from type-defining entry

loop_
 _atom_type_symbol
 _atom_type_oxidation_number
 Ga 0
 Mn 0
loop_
 _atom_site_label
 _atom_site_type_symbol
 _atom_site_Wyckoff_symbol
 _atom_site_symmetry_multiplicity
 _atom_site_fract_x
 _atom_site_fract_y
 _atom_site_fract_z
 _atom_site_occupancy
 Ga1 Ga i 8 0.063 0.204 0 1
 Mn1 Mn h 4 0.180 0.680 0.5 1
 Ga2 Ga d 2 0 0.5 0 1


_exptl_crystal_colour                    ?
_exptl_crystal_density_meas              ?
_cell_measurement_temperature            ?
_cell_measurement_radiation              'X-rays, Cu Ka'
_cell_measurement_reflns_used            ?
_diffrn_ambient_temperature              ?
_diffrn_measurement_device               ?
_diffrn_measurement_device_type          ?
_diffrn_radiation_type                   ?
_diffrn_reflns_number                    ?
_exptl_absorpt_coefficient_mu            ?
_exptl_absorpt_correction_type           ?
_computing_structure_solution            ?
_refine_ls_number_parameters             ?
_refine_ls_number_reflns                 ?
_refine_ls_R_factor_all                  ?
_refine_ls_wR_factor_all                 ?
_computing_structure_refinement          ?

# End of data set 261499
